% seed = 8158450

mint = 87;
% maxt = 258;

nActs = 42;
dur = [0,9,10,9,10,2,1,10,5,6,10,1,5,3,7,1,8,10,10,3,8,10,9,5,9,6,2,3,4,10,3,3,2,3,7,9,8,10,10,9,8,0];

nSkills = 4;
sreq = [| 0,0,0,0,
	| 3,5,4,2,
	| 3,4,6,3,
	| 0,3,0,7,
	| 1,5,1,4,
	| 4,0,7,4,
	| 6,3,0,6,
	| 5,3,1,2,
	| 3,4,2,0,
	| 3,2,2,1,
	| 0,0,7,2,
	| 0,2,6,3,
	| 0,7,0,7,
	| 0,0,5,6,
	| 0,6,5,6,
	| 0,0,4,5,
	| 6,5,2,0,
	| 2,4,4,6,
	| 2,1,4,3,
	| 0,4,6,7,
	| 4,4,0,3,
	| 4,0,7,0,
	| 7,0,4,0,
	| 6,3,0,7,
	| 3,0,3,4,
	| 0,4,3,7,
	| 4,0,5,0,
	| 3,2,1,2,
	| 0,3,2,3,
	| 2,3,4,2,
	| 0,0,5,4,
	| 2,0,4,6,
	| 5,4,0,7,
	| 0,7,5,0,
	| 3,3,0,4,
	| 6,7,0,0,
	| 5,1,2,4,
	| 4,5,0,4,
	| 7,7,4,0,
	| 7,0,0,5,
	| 0,3,5,0,
	| 0,0,0,0, |];

nResources = 30;
mastery = [| false,true,true,false,
	| false,true,true,false,
	| false,false,false,true,
	| false,true,false,true,
	| true,true,false,false,
	| false,false,false,true,
	| false,true,true,true,
	| true,false,true,false,
	| true,false,false,true,
	| true,true,false,true,
	| false,false,true,false,
	| true,true,false,true,
	| false,false,true,false,
	| true,false,false,false,
	| true,true,true,false,
	| true,false,false,false,
	| false,true,false,false,
	| true,false,false,false,
	| false,true,false,false,
	| true,true,false,true,
	| false,false,false,true,
	| true,false,false,true,
	| false,true,false,true,
	| false,false,false,true,
	| true,false,false,false,
	| false,true,true,false,
	| false,false,true,false,
	| false,true,true,true,
	| true,false,false,true,
	| true,false,true,false, |];

nPrecs = 73;
pred = [1,1,1,2,2,2,3,3,3,4,4,5,5,5,6,7,7,8,8,8,9,9,9,10,10,10,11,12,12,12,13,13,14,15,15,15,16,17,17,18,18,18,19,19,20,20,21,22,23,23,23,24,25,25,26,27,28,29,29,30,31,32,32,33,34,35,35,36,37,38,39,40,41];
succ = [2,3,4,14,7,30,12,5,32,26,8,10,19,6,15,29,24,9,11,27,17,29,31,35,13,15,20,18,30,16,34,22,23,17,27,29,40,36,21,26,27,23,28,38,25,28,30,39,33,41,28,26,41,37,33,33,35,41,40,37,32,35,36,36,38,39,40,37,38,39,42,42,42];

nUnrels = 469;
unpred = [2,2,2,2,2,2,2,2,2,2,2,2,2,2,2,2,2,2,2,2,2,2,2,3,3,3,3,3,3,3,3,3,3,4,4,4,4,4,4,4,4,4,4,4,4,4,4,4,5,5,5,5,5,5,5,5,5,5,5,5,5,5,5,6,6,6,6,6,6,6,6,6,6,6,6,6,6,6,6,6,6,6,6,6,6,7,7,7,7,7,7,7,7,7,7,7,7,7,7,7,7,7,7,7,7,7,7,7,7,8,8,8,8,8,8,8,8,8,8,8,8,8,9,9,9,9,9,9,9,9,9,9,9,9,9,9,9,9,9,9,9,10,10,10,10,10,10,10,10,10,10,10,10,10,10,11,11,11,11,11,11,11,11,11,11,11,11,11,11,11,11,11,11,11,11,11,12,12,12,12,12,12,12,12,12,12,12,12,12,12,13,13,13,13,13,13,13,13,13,13,13,13,13,13,13,13,13,13,13,13,13,13,13,13,14,14,14,14,14,14,14,14,14,14,14,14,14,14,14,14,14,15,15,15,15,15,15,15,15,15,15,15,15,15,15,16,16,16,16,16,16,16,16,16,16,16,16,16,16,16,16,16,16,16,16,16,16,16,16,17,17,17,17,17,17,17,17,17,17,17,17,17,17,17,17,17,17,18,18,18,18,18,18,18,18,18,18,18,19,19,19,19,19,19,19,19,19,19,19,19,19,19,19,19,19,20,20,20,20,20,20,20,20,20,20,20,20,20,21,21,21,21,21,21,21,21,21,21,21,21,21,21,21,21,22,22,22,22,22,22,22,22,22,22,22,22,22,22,22,22,22,22,23,23,23,23,23,23,23,23,23,24,24,24,24,24,24,24,24,24,24,24,25,25,25,25,25,25,25,25,25,25,25,25,26,26,26,26,26,26,26,26,26,26,27,27,27,27,27,27,27,27,27,28,28,28,28,28,28,28,28,28,28,29,29,29,29,29,29,29,29,29,29,30,30,30,30,30,30,30,30,31,31,31,32,32,32,33,33,33,33,34,34,34,34,34,35,35,35,35,36,36,37,37,38,38,39,39,40];
unsucc = [3,4,5,6,8,9,10,11,12,13,15,16,17,18,19,20,21,22,25,27,31,32,34,4,7,8,9,11,14,20,24,25,31,5,6,7,10,12,13,14,15,16,18,19,22,23,24,34,7,8,9,11,12,14,16,18,20,23,24,25,26,31,32,7,8,9,10,11,12,13,14,16,18,19,20,22,23,24,25,26,28,31,32,34,35,8,9,10,11,12,13,14,15,16,17,18,19,20,21,22,23,25,27,28,30,31,32,34,35,10,12,13,14,15,16,18,19,22,23,24,26,34,10,11,12,13,14,15,16,18,19,20,22,23,24,25,26,27,28,33,34,11,12,14,16,18,19,20,23,24,25,26,28,31,32,12,13,14,15,16,17,18,19,21,22,23,24,26,27,29,30,31,32,33,34,36,13,14,15,17,19,20,21,22,24,25,29,31,32,34,14,15,16,17,18,19,20,21,23,24,25,26,27,28,29,30,31,32,33,35,36,37,40,41,15,16,17,18,19,20,21,22,24,25,26,27,29,30,31,32,34,16,18,19,20,22,23,24,25,26,28,31,32,34,35,17,18,19,20,21,22,23,24,25,26,27,28,29,30,31,32,33,34,35,36,37,38,39,41,18,19,20,22,23,24,25,26,27,28,29,31,32,33,34,35,40,41,19,20,21,22,24,25,29,30,31,32,34,20,21,22,23,24,25,26,27,29,30,31,32,33,34,36,37,41,21,22,23,24,26,27,29,30,31,32,33,34,36,22,23,24,25,26,27,28,29,31,32,33,34,35,36,40,41,23,24,25,26,27,28,29,30,31,32,33,34,35,36,37,38,40,41,24,25,26,27,29,30,31,32,34,25,27,28,29,30,31,32,34,35,40,41,26,27,28,29,30,31,32,33,34,35,36,40,27,28,29,30,31,32,34,35,40,41,28,29,30,31,32,34,35,40,41,29,30,31,32,33,34,36,37,38,41,30,31,32,33,34,35,36,37,38,39,31,32,33,34,35,36,40,41,33,34,41,33,34,41,34,35,40,41,35,36,37,40,41,36,37,38,41,40,41,40,41,40,41,40,41,41];

USEFUL_RES = [{},
	{1,2,3,4,5,6,7,8,9,10,11,12,13,14,15,16,17,18,19,20,21,22,23,24,25,26,27,28,29,30},
	{1,2,3,4,5,6,7,8,9,10,11,12,13,14,15,16,17,18,19,20,21,22,23,24,25,26,27,28,29,30},
	{1,2,3,4,5,6,7,9,10,12,15,17,19,20,21,22,23,24,26,28,29},
	{1,2,3,4,5,6,7,8,9,10,11,12,13,14,15,16,17,18,19,20,21,22,23,24,25,26,27,28,29,30},
	{1,2,3,4,5,6,7,8,9,10,11,12,13,14,15,16,18,20,21,22,23,24,25,26,27,28,29,30},
	{1,2,3,4,5,6,7,8,9,10,12,14,15,16,17,18,19,20,21,22,23,24,25,26,28,29,30},
	{1,2,3,4,5,6,7,8,9,10,11,12,13,14,15,16,17,18,19,20,21,22,23,24,25,26,27,28,29,30},
	{1,2,4,5,7,8,9,10,11,12,13,14,15,16,17,18,19,20,22,23,25,26,27,28,29,30},
	{1,2,3,4,5,6,7,8,9,10,11,12,13,14,15,16,17,18,19,20,21,22,23,24,25,26,27,28,29,30},
	{1,2,3,4,6,7,8,9,10,11,12,13,15,20,21,22,23,24,26,27,28,29,30},
	{1,2,3,4,5,6,7,8,9,10,11,12,13,15,17,19,20,21,22,23,24,26,27,28,29,30},
	{1,2,3,4,5,6,7,9,10,12,15,17,19,20,21,22,23,24,26,28,29},
	{1,2,3,4,6,7,8,9,10,11,12,13,15,20,21,22,23,24,26,27,28,29,30},
	{1,2,3,4,5,6,7,8,9,10,11,12,13,15,17,19,20,21,22,23,24,26,27,28,29,30},
	{1,2,3,4,6,7,8,9,10,11,12,13,15,20,21,22,23,24,26,27,28,29,30},
	{1,2,4,5,7,8,9,10,11,12,13,14,15,16,17,18,19,20,22,23,25,26,27,28,29,30},
	{1,2,3,4,5,6,7,8,9,10,11,12,13,14,15,16,17,18,19,20,21,22,23,24,25,26,27,28,29,30},
	{1,2,3,4,5,6,7,8,9,10,11,12,13,14,15,16,17,18,19,20,21,22,23,24,25,26,27,28,29,30},
	{1,2,3,4,5,6,7,8,9,10,11,12,13,15,17,19,20,21,22,23,24,26,27,28,29,30},
	{1,2,3,4,5,6,7,8,9,10,12,14,15,16,17,18,19,20,21,22,23,24,25,26,28,29,30},
	{1,2,5,7,8,9,10,11,12,13,14,15,16,18,20,22,25,26,27,28,29,30},
	{1,2,5,7,8,9,10,11,12,13,14,15,16,18,20,22,25,26,27,28,29,30},
	{1,2,3,4,5,6,7,8,9,10,12,14,15,16,17,18,19,20,21,22,23,24,25,26,28,29,30},
	{1,2,3,4,5,6,7,8,9,10,11,12,13,14,15,16,18,20,21,22,23,24,25,26,27,28,29,30},
	{1,2,3,4,5,6,7,8,9,10,11,12,13,15,17,19,20,21,22,23,24,26,27,28,29,30},
	{1,2,5,7,8,9,10,11,12,13,14,15,16,18,20,22,25,26,27,28,29,30},
	{1,2,3,4,5,6,7,8,9,10,11,12,13,14,15,16,17,18,19,20,21,22,23,24,25,26,27,28,29,30},
	{1,2,3,4,5,6,7,8,9,10,11,12,13,15,17,19,20,21,22,23,24,26,27,28,29,30},
	{1,2,3,4,5,6,7,8,9,10,11,12,13,14,15,16,17,18,19,20,21,22,23,24,25,26,27,28,29,30},
	{1,2,3,4,6,7,8,9,10,11,12,13,15,20,21,22,23,24,26,27,28,29,30},
	{1,2,3,4,5,6,7,8,9,10,11,12,13,14,15,16,18,20,21,22,23,24,25,26,27,28,29,30},
	{1,2,3,4,5,6,7,8,9,10,12,14,15,16,17,18,19,20,21,22,23,24,25,26,28,29,30},
	{1,2,4,5,7,8,10,11,12,13,15,17,19,20,23,26,27,28,30},
	{1,2,3,4,5,6,7,8,9,10,12,14,15,16,17,18,19,20,21,22,23,24,25,26,28,29,30},
	{1,2,4,5,7,8,9,10,12,14,15,16,17,18,19,20,22,23,25,26,28,29,30},
	{1,2,3,4,5,6,7,8,9,10,11,12,13,14,15,16,17,18,19,20,21,22,23,24,25,26,27,28,29,30},
	{1,2,3,4,5,6,7,8,9,10,12,14,15,16,17,18,19,20,21,22,23,24,25,26,28,29,30},
	{1,2,4,5,7,8,9,10,11,12,13,14,15,16,17,18,19,20,22,23,25,26,27,28,29,30},
	{3,4,5,6,7,8,9,10,12,14,15,16,18,20,21,22,23,24,25,28,29,30},
	{1,2,4,5,7,8,10,11,12,13,15,17,19,20,23,26,27,28,30},
	{}];

POTENTIAL_ACT = [{2,3,4,5,6,7,8,9,10,11,12,13,14,15,16,17,18,19,20,21,22,23,24,25,26,27,28,29,30,31,32,33,34,35,36,37,38,39,41},
	{2,3,4,5,6,7,8,9,10,11,12,13,14,15,16,17,18,19,20,21,22,23,24,25,26,27,28,29,30,31,32,33,34,35,36,37,38,39,41},
	{2,3,4,5,6,7,8,10,11,12,13,14,15,16,18,19,20,21,24,25,26,28,29,30,31,32,33,35,37,38,40},
	{2,3,4,5,6,7,8,9,10,11,12,13,14,15,16,17,18,19,20,21,24,25,26,28,29,30,31,32,33,34,35,36,37,38,39,40,41},
	{2,3,4,5,6,7,8,9,10,12,13,15,17,18,19,20,21,22,23,24,25,26,27,28,29,30,32,33,34,35,36,37,38,39,40,41},
	{2,3,4,5,6,7,8,10,11,12,13,14,15,16,18,19,20,21,24,25,26,28,29,30,31,32,33,35,37,38,40},
	{2,3,4,5,6,7,8,9,10,11,12,13,14,15,16,17,18,19,20,21,22,23,24,25,26,27,28,29,30,31,32,33,34,35,36,37,38,39,40,41},
	{2,3,5,6,7,8,9,10,11,12,14,15,16,17,18,19,20,21,22,23,24,25,26,27,28,29,30,31,32,33,34,35,36,37,38,39,40,41},
	{2,3,4,5,6,7,8,9,10,11,12,13,14,15,16,17,18,19,20,21,22,23,24,25,26,27,28,29,30,31,32,33,35,36,37,38,39,40},
	{2,3,4,5,6,7,8,9,10,11,12,13,14,15,16,17,18,19,20,21,22,23,24,25,26,27,28,29,30,31,32,33,34,35,36,37,38,39,40,41},
	{2,3,5,6,8,9,10,11,12,14,15,16,17,18,19,20,22,23,25,26,27,28,29,30,31,32,34,37,39,41},
	{2,3,4,5,6,7,8,9,10,11,12,13,14,15,16,17,18,19,20,21,22,23,24,25,26,27,28,29,30,31,32,33,34,35,36,37,38,39,40,41},
	{2,3,5,6,8,9,10,11,12,14,15,16,17,18,19,20,22,23,25,26,27,28,29,30,31,32,34,37,39,41},
	{2,3,5,6,7,8,9,10,17,18,19,21,22,23,24,25,27,28,30,32,33,35,36,37,38,39,40},
	{2,3,4,5,6,7,8,9,10,11,12,13,14,15,16,17,18,19,20,21,22,23,24,25,26,27,28,29,30,31,32,33,34,35,36,37,38,39,40,41},
	{2,3,5,6,7,8,9,10,17,18,19,21,22,23,24,25,27,28,30,32,33,35,36,37,38,39,40},
	{2,3,4,5,7,8,9,10,12,13,15,17,18,19,20,21,24,26,28,29,30,33,34,35,36,37,38,39,41},
	{2,3,5,6,7,8,9,10,17,18,19,21,22,23,24,25,27,28,30,32,33,35,36,37,38,39,40},
	{2,3,4,5,7,8,9,10,12,13,15,17,18,19,20,21,24,26,28,29,30,33,34,35,36,37,38,39,41},
	{2,3,4,5,6,7,8,9,10,11,12,13,14,15,16,17,18,19,20,21,22,23,24,25,26,27,28,29,30,31,32,33,34,35,36,37,38,39,40,41},
	{2,3,4,5,6,7,8,10,11,12,13,14,15,16,18,19,20,21,24,25,26,28,29,30,31,32,33,35,37,38,40},
	{2,3,4,5,6,7,8,9,10,11,12,13,14,15,16,17,18,19,20,21,22,23,24,25,26,27,28,29,30,31,32,33,35,36,37,38,39,40},
	{2,3,4,5,6,7,8,9,10,11,12,13,14,15,16,17,18,19,20,21,24,25,26,28,29,30,31,32,33,34,35,36,37,38,39,40,41},
	{2,3,4,5,6,7,8,10,11,12,13,14,15,16,18,19,20,21,24,25,26,28,29,30,31,32,33,35,37,38,40},
	{2,3,5,6,7,8,9,10,17,18,19,21,22,23,24,25,27,28,30,32,33,35,36,37,38,39,40},
	{2,3,4,5,6,7,8,9,10,11,12,13,14,15,16,17,18,19,20,21,22,23,24,25,26,27,28,29,30,31,32,33,34,35,36,37,38,39,41},
	{2,3,5,6,8,9,10,11,12,14,15,16,17,18,19,20,22,23,25,26,27,28,29,30,31,32,34,37,39,41},
	{2,3,4,5,6,7,8,9,10,11,12,13,14,15,16,17,18,19,20,21,22,23,24,25,26,27,28,29,30,31,32,33,34,35,36,37,38,39,40,41},
	{2,3,4,5,6,7,8,9,10,11,12,13,14,15,16,17,18,19,20,21,22,23,24,25,26,27,28,29,30,31,32,33,35,36,37,38,39,40},
	{2,3,5,6,7,8,9,10,11,12,14,15,16,17,18,19,20,21,22,23,24,25,26,27,28,29,30,31,32,33,34,35,36,37,38,39,40,41}];
